c colouring generated by benchmark framework
p edge 450 17343
v 1 22
v 2 1
v 3 12
v 4 4
v 5 27
v 6 8
v 7 17
v 8 24
v 9 25
v 10 17
v 11 3
v 12 2
v 13 22
v 14 33
v 15 17
v 16 15
v 17 6
v 18 16
v 19 6
v 20 2
v 21 4
v 22 9
v 23 22
v 24 22
v 25 22
v 26 17
v 27 18
v 28 8
v 29 4
v 30 9
v 31 3
v 32 25
v 33 3
v 34 18
v 35 13
v 36 32
v 37 7
v 38 20
v 39 6
v 40 23
v 41 11
v 42 22
v 43 18
v 44 10
v 45 27
v 46 3
v 47 1
v 48 15
v 49 14
v 50 9
v 51 16
v 52 6
v 53 0
v 54 2
v 55 28
v 56 8
v 57 1
v 58 19
v 59 26
v 60 22
v 61 19
v 62 7
v 63 4
v 64 2
v 65 19
v 66 12
v 67 2
v 68 5
v 69 25
v 70 10
v 71 8
v 72 4
v 73 8
v 74 19
v 75 24
v 76 11
v 77 5
v 78 29
v 79 23
v 80 3
v 81 8
v 82 21
v 83 1
v 84 6
v 85 1
v 86 20
v 87 13
v 88 19
v 89 0
v 90 31
v 91 27
v 92 9
v 93 21
v 94 15
v 95 27
v 96 10
v 97 11
v 98 30
v 99 21
v 100 23
v 101 12
v 102 13
v 103 19
v 104 16
v 105 15
v 106 12
v 107 15
v 108 15
v 109 0
v 110 12
v 111 20
v 112 2
v 113 9
v 114 22
v 115 6
v 116 26
v 117 18
v 118 10
v 119 26
v 120 26
v 121 32
v 122 20
v 123 29
v 124 21
v 125 16
v 126 3
v 127 22
v 128 17
v 129 27
v 130 23
v 131 7
v 132 3
v 133 0
v 134 5
v 135 26
v 136 7
v 137 11
v 138 21
v 139 14
v 140 0
v 141 1
v 142 2
v 143 6
v 144 12
v 145 17
v 146 5
v 147 10
v 148 18
v 149 33
v 150 3
v 151 3
v 152 5
v 153 30
v 154 2
v 155 12
v 156 29
v 157 2
v 158 21
v 159 27
v 160 7
v 161 25
v 162 7
v 163 8
v 164 21
v 165 4
v 166 18
v 167 9
v 168 10
v 169 18
v 170 5
v 171 3
v 172 18
v 173 9
v 174 23
v 175 17
v 176 32
v 177 33
v 178 28
v 179 22
v 180 0
v 181 17
v 182 9
v 183 13
v 184 8
v 185 5
v 186 12
v 187 8
v 188 0
v 189 7
v 190 0
v 191 4
v 192 27
v 193 10
v 194 10
v 195 23
v 196 5
v 197 23
v 198 20
v 199 24
v 200 16
v 201 11
v 202 19
v 203 5
v 204 6
v 205 26
v 206 9
v 207 9
v 208 14
v 209 13
v 210 5
v 211 20
v 212 4
v 213 24
v 214 2
v 215 19
v 216 1
v 217 32
v 218 4
v 219 15
v 220 16
v 221 10
v 222 12
v 223 14
v 224 29
v 225 19
v 226 16
v 227 18
v 228 9
v 229 16
v 230 1
v 231 21
v 232 7
v 233 16
v 234 14
v 235 16
v 236 14
v 237 3
v 238 4
v 239 32
v 240 29
v 241 10
v 242 11
v 243 7
v 244 5
v 245 2
v 246 11
v 247 30
v 248 29
v 249 0
v 250 0
v 251 6
v 252 14
v 253 21
v 254 4
v 255 21
v 256 5
v 257 7
v 258 8
v 259 24
v 260 5
v 261 14
v 262 6
v 263 8
v 264 1
v 265 12
v 266 5
v 267 14
v 268 5
v 269 10
v 270 12
v 271 17
v 272 16
v 273 9
v 274 27
v 275 11
v 276 23
v 277 30
v 278 23
v 279 16
v 280 18
v 281 10
v 282 13
v 283 20
v 284 30
v 285 1
v 286 13
v 287 31
v 288 3
v 289 30
v 290 20
v 291 7
v 292 23
v 293 0
v 294 10
v 295 29
v 296 1
v 297 17
v 298 1
v 299 15
v 300 6
v 301 20
v 302 8
v 303 23
v 304 12
v 305 26
v 306 7
v 307 1
v 308 2
v 309 31
v 310 25
v 311 15
v 312 0
v 313 7
v 314 18
v 315 28
v 316 16
v 317 0
v 318 4
v 319 2
v 320 6
v 321 21
v 322 1
v 323 3
v 324 8
v 325 6
v 326 18
v 327 14
v 328 8
v 329 16
v 330 14
v 331 8
v 332 14
v 333 28
v 334 6
v 335 30
v 336 8
v 337 20
v 338 13
v 339 2
v 340 1
v 341 7
v 342 2
v 343 13
v 344 12
v 345 21
v 346 15
v 347 25
v 348 0
v 349 15
v 350 17
v 351 5
v 352 0
v 353 0
v 354 11
v 355 28
v 356 18
v 357 13
v 358 6
v 359 13
v 360 25
v 361 18
v 362 19
v 363 26
v 364 19
v 365 24
v 366 11
v 367 5
v 368 10
v 369 4
v 370 28
v 371 1
v 372 17
v 373 20
v 374 15
v 375 2
v 376 32
v 377 0
v 378 0
v 379 22
v 380 22
v 381 28
v 382 24
v 383 18
v 384 7
v 385 13
v 386 15
v 387 11
v 388 4
v 389 16
v 390 19
v 391 11
v 392 14
v 393 25
v 394 1
v 395 28
v 396 17
v 397 1
v 398 20
v 399 11
v 400 3
v 401 27
v 402 30
v 403 17
v 404 3
v 405 19
v 406 15
v 407 23
v 408 26
v 409 31
v 410 13
v 411 21
v 412 6
v 413 9
v 414 9
v 415 3
v 416 4
v 417 27
v 418 20
v 419 2
v 420 1
v 421 16
v 422 25
v 423 4
v 424 24
v 425 8
v 426 4
v 427 3
v 428 20
v 429 14
v 430 15
v 431 1
v 432 5
v 433 33
v 434 4
v 435 25
v 436 11
v 437 2
v 438 9
v 439 22
v 440 24
v 441 10
v 442 6
v 443 10
v 444 24
v 445 25
v 446 12
v 447 14
v 448 22
v 449 24
v 450 8
